106	22	4	75	
9	9	10	10

0	0	0	0	0	0	4	1	2	3	4
1	0	8	10	7	9	1	7
2	3	0	0	0	9	1	11
3	5	0	2	10	7	1	9
4	6	1	0	10	3	1	5
5	0	0	0	7	2	1	6
6	0	1	0	0	9	1	14
7	4	4	5	7	6	1	8
8	8	0	6	6	10	1	12
9	2	8	5	4	5	1	10
10	8	9	4	6	5	1	18
11	1	6	0	4	6	1	13
12	4	7	1	10	1	1	20
13	0	9	5	0	3	1	17
14	5	1	4	9	8	1	15
15	0	8	10	0	5	1	16
16	9	4	3	2	6	2	17	19
17	3	2	3	7	6	1	21
18	4	8	6	6	1	1	21
19	0	0	7	1	4	1	21
20	5	3	3	4	1	1	21
21	0	0	0	0	0	0
